2	25
117	693	651	130	101	397	495	432	326	247	372	691	134	637	845	273	830	510	301	705	962	797	91	446	406	
967	267	692	857	657	589	221	876	600	552	54	195	658	117	569	123	121	305	40	73	858	584	107	666	546	
2824	2824	
